Version identifier: 22.1.0.0 | 2022-03-09 | 1a383f8ce
CPXPARAM_Threads                                 1
CPXPARAM_MIP_Strategy_VariableSelect             3
CPXPARAM_TimeLimit                               599.99998372899995
1 of 1 MIP starts provided solutions.
MIP start 'm1' defined initial solution with objective 1.0000.
Tried aggregator 1 time.
MIP Presolve eliminated 19 rows and 0 columns.
MIP Presolve modified 235 coefficients.
Reduced MIP has 903 rows, 2100 columns, and 25030 nonzeros.
Reduced MIP has 2100 binaries, 0 generals, 0 SOSs, and 0 indicators.
Presolve time = 0.04 sec. (51.19 ticks)
Probing time = 0.01 sec. (7.99 ticks)
Tried aggregator 1 time.
Detecting symmetries...
MIP Presolve modified 14 coefficients.
Reduced MIP has 903 rows, 2100 columns, and 25429 nonzeros.
Reduced MIP has 2100 binaries, 0 generals, 0 SOSs, and 0 indicators.
Presolve time = 0.03 sec. (28.77 ticks)
Probing time = 0.01 sec. (8.05 ticks)
Clique table members: 593.
MIP emphasis: balance optimality and feasibility.
MIP search method: dynamic search.
Parallel mode: none, using 1 thread.
Root relaxation solution time = 0.11 sec. (114.42 ticks)

        Nodes                                         Cuts/
   Node  Left     Objective  IInf  Best Integer    Best Bound    ItCnt     Gap

*     0+    0                            1.0000     5050.0000              --- 
      0     0      100.0000   422        1.0000      100.0000     1362     --- 
      0     0      100.0000   306        1.0000      Cuts: 16     2040     --- 
      0     0      100.0000   245        1.0000    Cliques: 7     2492     --- 
      0     0      100.0000   331        1.0000      Cuts: 76     3239     --- 
*     0+    0                           40.0000      100.0000           150.00%
      0     0        cutoff             40.0000      100.0000     3239  150.00%
      0     0      100.0000   270       40.0000      Cuts: 14     3783  150.00%
      0     0      100.0000   220       40.0000    Cliques: 3     3993  150.00%
Detecting symmetries...
      0     0      100.0000   330       40.0000      Cuts: 95     4835  150.00%
*     0+    0                           84.0000      100.0000            19.05%
Detecting symmetries...
      0     2      100.0000   151       84.0000      100.0000     4835   19.05%
Elapsed time = 5.86 sec. (5874.62 ticks, tree = 0.01 MB, solutions = 3)
      1     3      100.0000   327       84.0000      100.0000     7930   19.05%
      2     4      100.0000   378       84.0000      100.0000     9707   19.05%
      3     5      100.0000   355       84.0000      100.0000    11697   19.05%
      5     7      100.0000   320       84.0000      100.0000    11997   19.05%
      7     9      100.0000   319       84.0000      100.0000    12663   19.05%
     10    12      100.0000   339       84.0000      100.0000    13562   19.05%
     13    15      100.0000   350       84.0000      100.0000    14649   19.05%
     15    17      100.0000   433       84.0000      100.0000    15093   19.05%
     17    19      100.0000   289       84.0000      100.0000    16004   19.05%
     23    25      100.0000   270       84.0000      100.0000    20026   19.05%
Elapsed time = 9.85 sec. (9854.80 ticks, tree = 0.17 MB, solutions = 3)
     31    33      100.0000   186       84.0000      100.0000    24873   19.05%
     38    40      100.0000   276       84.0000      100.0000    29928   19.05%
     44    46      100.0000   213       84.0000      100.0000    35225   19.05%
     51    53      100.0000   175       84.0000      100.0000    39091   19.05%
     58    60      100.0000   349       84.0000      100.0000    44062   19.05%
     60    62      100.0000   379       84.0000      100.0000    45723   19.05%
     66    66    infeasible             84.0000      100.0000    54055   19.05%
     75    72       99.0000   257       84.0000      100.0000    61700   19.05%
     89    78       99.0000   154       84.0000      100.0000    65659   19.05%
    105    90       99.0000   135       84.0000      100.0000    67323   19.05%
Elapsed time = 21.04 sec. (20568.42 ticks, tree = 0.66 MB, solutions = 3)
    125    96    infeasible             84.0000      100.0000    69710   19.05%
    131   102      100.0000   355       84.0000      100.0000    73739   19.05%
    137   106       99.0000   258       84.0000      100.0000    81054   19.05%
    141   109       99.0000   234       84.0000      100.0000    83866   19.05%
    147   113      100.0000   287       84.0000      100.0000    91625   19.05%
    152   117      100.0000   273       84.0000      100.0000    99237   19.05%
    158   123      100.0000   263       84.0000      100.0000   106122   19.05%
    163   126       99.0000   304       84.0000      100.0000   114349   19.05%
    168   130      100.0000   187       84.0000      100.0000   122424   19.05%
    179   137       99.9189   207       84.0000      100.0000   126685   19.05%
Elapsed time = 31.87 sec. (30935.92 ticks, tree = 1.04 MB, solutions = 3)
    194   145       99.0000   152       84.0000      100.0000   128481   19.05%
    210   151      100.0000   330       84.0000      100.0000   132653   19.05%
    218   158       99.0000   240       84.0000      100.0000   136383   19.05%
    231   160       99.0000   206       84.0000      100.0000   141226   19.05%
    248   164       99.0000   162       84.0000      100.0000   143767   19.05%
    265   165       99.0000   176       84.0000      100.0000   147957   19.05%
    284   166       99.0000   175       84.0000      100.0000   151256   19.05%
    295   168       99.0000   265       84.0000      100.0000   157757   19.05%
    305   174       99.0000   175       84.0000      100.0000   162181   19.05%
    319   180    infeasible             84.0000      100.0000   165147   19.05%
Elapsed time = 42.34 sec. (41147.53 ticks, tree = 1.42 MB, solutions = 3)
    330   185      100.0000   325       84.0000      100.0000   167599   19.05%
    340   195      100.0000   312       84.0000      100.0000   168454   19.05%
    353   202    infeasible             84.0000      100.0000   170605   19.05%
    363   210      100.0000   175       84.0000      100.0000   172333   19.05%
    377   224       99.5000   201       84.0000      100.0000   173701   19.05%
    393   239       99.5000   195       84.0000      100.0000   174102   19.05%
    408   254       99.5000   171       84.0000      100.0000   174664   19.05%
    427   273       99.5000   160       84.0000      100.0000   175394   19.05%
    444   289       99.5000   145       84.0000      100.0000   176162   19.05%
    454   293      100.0000   173       84.0000      100.0000   180117   19.05%
Elapsed time = 52.76 sec. (51100.20 ticks, tree = 2.43 MB, solutions = 3)
    465   304       99.6000   188       84.0000      100.0000   183274   19.05%
    480   313    infeasible             84.0000      100.0000   186665   19.05%
    495   322    infeasible             84.0000      100.0000   189726   19.05%
    510   331       99.9102   229       84.0000      100.0000   192577   19.05%
    527   339       99.5902   191       84.0000      100.0000   195285   19.05%
    544   346       99.0000   194       84.0000      100.0000   197975   19.05%
    558   347       99.0000   244       84.0000      100.0000   203302   19.05%
    574   351       99.0000   176       84.0000      100.0000   206343   19.05%
    588   354       99.0000   241       84.0000      100.0000   210666   19.05%
    600   360       99.0000   202       84.0000      100.0000   214793   19.05%
Elapsed time = 62.87 sec. (60921.09 ticks, tree = 3.03 MB, solutions = 3)
    614   364       99.0000   157       84.0000      100.0000   219551   19.05%
    634   367    infeasible             84.0000      100.0000   221949   19.05%
    654   366    infeasible             84.0000      100.0000   226020   19.05%
    671   383       99.9464   252       84.0000      100.0000   227661   19.05%
    685   397       99.9458   246       84.0000      100.0000   228702   19.05%
    700   412       99.9423   248       84.0000      100.0000   229940   19.05%
    718   429       99.9006   242       84.0000      100.0000   231871   19.05%
    736   447       99.4354   215       84.0000      100.0000   233427   19.05%
    756   463       99.9395   246       84.0000      100.0000   235717   19.05%
    772   473       99.8638   221       84.0000      100.0000   238709   19.05%
Elapsed time = 73.04 sec. (70801.63 ticks, tree = 4.05 MB, solutions = 3)
    787   488       99.8247   226       84.0000      100.0000   241352   19.05%
    809   498       99.7747   222       84.0000      100.0000   244168   19.05%
    830   511       99.5822   193       84.0000      100.0000   247374   19.05%
    851   518       99.9469   209       84.0000      100.0000   251040   19.05%
    871   538       99.9400   213       84.0000      100.0000   252827   19.05%
    892   559       99.8940   192       84.0000      100.0000   255086   19.05%
    909   571       99.0000   159       84.0000      100.0000   257515   19.05%
    919   575      100.0000   351       84.0000      100.0000   263760   19.05%
    927   583      100.0000   363       84.0000      100.0000   264264   19.05%
    937   586    infeasible             84.0000      100.0000   268548   19.05%
Elapsed time = 83.38 sec. (81029.32 ticks, tree = 5.12 MB, solutions = 3)
    947   590       99.0000   175       84.0000      100.0000   273019   19.05%
    959   598       99.0000   137       84.0000      100.0000   276234   19.05%
*   965+  598                           86.0000      100.0000            16.28%
*   965+  598                           90.0000      100.0000            11.11%
*   966+  599                           92.0000      100.0000             8.70%
    966   600       99.0000   200       92.0000      100.0000   281293    8.70%
    968   601       99.8683   224       92.0000      100.0000   284521    8.70%
    976   607    infeasible             92.0000      100.0000   287212    8.70%
    988   615      100.0000   338       92.0000      100.0000   288744    8.70%
    997   624      100.0000   320       92.0000      100.0000   291404    8.70%
   1001   628      100.0000   323       92.0000      100.0000   291843    8.70%
   1010   636       99.0000   289       92.0000      100.0000   294744    8.70%
   1021   643       99.0000   276       92.0000      100.0000   296444    8.70%
Elapsed time = 100.96 sec. (97539.13 ticks, tree = 5.64 MB, solutions = 6)
   1032   654       99.0000   284       92.0000      100.0000   297293    8.70%
   1042   662       99.0000   305       92.0000      100.0000   298221    8.70%
   1054   672       99.0000   293       92.0000      100.0000   299106    8.70%
   1065   683       99.0000   279       92.0000      100.0000   299998    8.70%
   1073   689       99.0000   281       92.0000      100.0000   303544    8.70%

Performing restart 1

Repeating presolve.
Tried aggregator 1 time.
MIP Presolve eliminated 0 rows and 92 columns.
MIP Presolve modified 26 coefficients.
Reduced MIP has 903 rows, 2008 columns, and 18261 nonzeros.
Reduced MIP has 2008 binaries, 0 generals, 0 SOSs, and 0 indicators.
Presolve time = 0.01 sec. (9.93 ticks)
Tried aggregator 1 time.
Reduced MIP has 903 rows, 2008 columns, and 18261 nonzeros.
Reduced MIP has 2008 binaries, 0 generals, 0 SOSs, and 0 indicators.
Presolve time = 0.01 sec. (10.47 ticks)
Represolve time = 0.15 sec. (72.14 ticks)
   1076     0      100.0000   220       92.0000   Cliques: 13   305021    8.70%
   1076     0      100.0000   264       92.0000     Cuts: 204   305633    8.70%
   1076     0      100.0000   103       92.0000       Cuts: 2   305842    8.70%
   1076     0      100.0000   162       92.0000     Cuts: 118   306468    8.70%
   1076     0      100.0000   120       92.0000      Cuts: 15   307249    8.70%
*  1076+    0                           97.0000      100.0000             3.09%
   1076     0        cutoff             97.0000      100.0000   307249    3.09%
   1076     2      100.0000   101       97.0000      100.0000   307249    3.09%
   1083     9      100.0000   182       97.0000      100.0000   311215    3.09%
   1093    19      100.0000   200       97.0000      100.0000   315020    3.09%
   1103    29      100.0000   308       97.0000      100.0000   319894    3.09%
   1126    52      100.0000   233       97.0000      100.0000   328112    3.09%
Elapsed time = 118.76 sec. (114337.99 ticks, tree = 0.23 MB, solutions = 7)
   1168    93       99.0000   243       97.0000      100.0000   343535    3.09%
   1206   129      100.0000   191       97.0000      100.0000   354529    3.09%
   1267   171       99.0000   128       97.0000      100.0000   370633    3.09%
   1345   186       99.0000   108       97.0000      100.0000   397210    3.09%
   1411   217      100.0000   201       97.0000      100.0000   413855    3.09%
   1469   258       98.0000   115       97.0000      100.0000   430437    3.09%
   1476   261       98.0000    93       97.0000      100.0000   433059    3.09%
   1551   294       99.0000   135       97.0000      100.0000   454329    3.09%
   1606   324      100.0000    81       97.0000      100.0000   477160    3.09%
   1673   361    infeasible             97.0000      100.0000   500539    3.09%
Elapsed time = 161.49 sec. (154141.66 ticks, tree = 2.59 MB, solutions = 7)
   1755   371       99.0000   153       97.0000      100.0000   527685    3.09%
   1831   382       99.0000   168       97.0000      100.0000   554727    3.09%
   1900   411      100.0000   155       97.0000      100.0000   576090    3.09%
   1986   441       99.0000   115       97.0000      100.0000   597557    3.09%
   2051   475      100.0000   129       97.0000      100.0000   619342    3.09%
   2122   503       99.0000    90       97.0000      100.0000   640969    3.09%
   2191   560      100.0000    61       97.0000      100.0000   653187    3.09%
   2264   589       99.0000   112       97.0000      100.0000   678091    3.09%
   2335   623       99.0000   110       97.0000      100.0000   693661    3.09%
   2408   658      100.0000   112       97.0000      100.0000   715354    3.09%
Elapsed time = 203.66 sec. (192625.87 ticks, tree = 5.03 MB, solutions = 7)
   2488   685      100.0000   102       97.0000      100.0000   736533    3.09%
   2574   714       99.0000   133       97.0000      100.0000   756134    3.09%
   2647   739       99.0000   142       97.0000      100.0000   779084    3.09%
   2735   764    infeasible             97.0000      100.0000   801690    3.09%
   2799   809       99.0000   139       97.0000      100.0000   815418    3.09%
   2868   832       99.0000   139       97.0000      100.0000   839089    3.09%
   2940   841    infeasible             97.0000      100.0000   866293    3.09%
   2997   856       99.0000    93       97.0000      100.0000   894953    3.09%
   3069   867       99.0000   102       97.0000      100.0000   924325    3.09%
   3144   874       99.0000   154       97.0000      100.0000   953574    3.09%
Elapsed time = 245.70 sec. (231003.48 ticks, tree = 6.55 MB, solutions = 7)
   3235   888       99.0000   148       97.0000      100.0000   978300    3.09%
   3292   905       99.0000   228       97.0000      100.0000  1011029    3.09%
   3355   938       99.0000   194       97.0000      100.0000  1037131    3.09%
   3416   969       99.0000   150       97.0000      100.0000  1054997    3.09%
   3497   977       99.0000   128       97.0000      100.0000  1082552    3.09%
   3572   992    infeasible             97.0000      100.0000  1106618    3.09%
   3648  1009       99.0000    78       97.0000      100.0000  1130544    3.09%
   3721  1025       99.0000   173       97.0000      100.0000  1155969    3.09%
   3776  1038       99.0000   176       97.0000      100.0000  1180601    3.09%
   3838  1040    infeasible             97.0000      100.0000  1211122    3.09%
Elapsed time = 288.01 sec. (269397.80 ticks, tree = 7.69 MB, solutions = 7)
   3906  1052    infeasible             97.0000      100.0000  1236810    3.09%
   3973  1069       99.0000   193       97.0000      100.0000  1262409    3.09%
   4037  1104       99.0000   126       97.0000      100.0000  1282622    3.09%
   4103  1127       99.0000   160       97.0000      100.0000  1307157    3.09%
   4175  1144       99.0000   151       97.0000      100.0000  1331767    3.09%
   4245  1150    infeasible             97.0000      100.0000  1359250    3.09%
   4312  1158       99.0000   181       97.0000      100.0000  1386621    3.09%
   4386  1157    infeasible             97.0000      100.0000  1417275    3.09%
   4441  1184       99.0000   111       97.0000      100.0000  1441158    3.09%
   4476  1193       99.0000   197       97.0000      100.0000  1457603    3.09%
Elapsed time = 333.48 sec. (310675.23 ticks, tree = 8.81 MB, solutions = 7)
   4544  1226       99.0000   121       97.0000      100.0000  1479054    3.09%
   4591  1268      100.0000   247       97.0000      100.0000  1496551    3.09%
   4631  1295      100.0000    95       97.0000      100.0000  1525232    3.09%
   4690  1313       99.0000   185       97.0000      100.0000  1550781    3.09%
   4755  1314       99.0000   139       97.0000      100.0000  1582047    3.09%
   4814  1318    infeasible             97.0000      100.0000  1613623    3.09%
   4873  1336    infeasible             97.0000      100.0000  1638526    3.09%
   4928  1359       99.0000    99       97.0000      100.0000  1664267    3.09%
   5004  1369       99.0000   191       97.0000      100.0000  1690133    3.09%
   5068  1387       99.0000   105       97.0000      100.0000  1715846    3.09%
Elapsed time = 375.77 sec. (349138.53 ticks, tree = 9.63 MB, solutions = 7)
   5137  1400       99.0000   142       97.0000      100.0000  1742453    3.09%
   5187  1408       99.0000   139       97.0000      100.0000  1773510    3.09%
   5234  1429      100.0000   152       97.0000      100.0000  1799780    3.09%
   5282  1460      100.0000   147       97.0000      100.0000  1829220    3.09%
   5357  1494       99.0000    99       97.0000      100.0000  1856029    3.09%
   5419  1514       99.0000   115       97.0000      100.0000  1878928    3.09%
   5485  1536      100.0000   121       97.0000      100.0000  1897848    3.09%
   5550  1598       99.0000   168       97.0000      100.0000  1906047    3.09%
   5611  1606       99.0000   183       97.0000      100.0000  1933786    3.09%
   5672  1633    infeasible             97.0000      100.0000  1955724    3.09%
Elapsed time = 418.12 sec. (387614.38 ticks, tree = 11.65 MB, solutions = 7)
   5739  1652    infeasible             97.0000      100.0000  1980826    3.09%
   5800  1678       99.0000   190       97.0000      100.0000  2007420    3.09%
   5869  1693    infeasible             97.0000      100.0000  2032692    3.09%
   5941  1711      100.0000    95       97.0000      100.0000  2058314    3.09%
   6000  1738       99.0000   153       97.0000      100.0000  2085975    3.09%
   6072  1751       99.0000   178       97.0000      100.0000  2108953    3.09%
   6142  1752    infeasible             97.0000      100.0000  2137839    3.09%
   6204  1785    infeasible             97.0000      100.0000  2156542    3.09%
   6267  1828       99.0000   175       97.0000      100.0000  2171890    3.09%
   6327  1831       99.0000   165       97.0000      100.0000  2201872    3.09%
Elapsed time = 460.42 sec. (426096.14 ticks, tree = 13.35 MB, solutions = 7)
   6402  1837    infeasible             97.0000      100.0000  2227166    3.09%
   6465  1854       99.0000   182       97.0000      100.0000  2249107    3.09%
   6540  1862      100.0000   137       97.0000      100.0000  2275600    3.09%
*  6576+  365                           99.0000      100.0000             1.01%
   6576   365       99.0000     0       99.0000      100.0000  2293850    1.01%
   6611   371    infeasible             99.0000      100.0000  2331015    1.01%
   6640   376      100.0000   185       99.0000      100.0000  2368897    1.01%
   6665   380    infeasible             99.0000      100.0000  2405242    1.01%
   6678   381      100.0000   176       99.0000      100.0000  2418341    1.01%
   6707   386      100.0000   249       99.0000      100.0000  2455197    1.01%
   6740   395    infeasible             99.0000      100.0000  2491620    1.01%
Elapsed time = 506.19 sec. (467348.50 ticks, tree = 2.67 MB, solutions = 8)
   6769   396      100.0000   161       99.0000      100.0000  2526717    1.01%
   6804   408      100.0000   142       99.0000      100.0000  2558255    1.01%
   6835   401    infeasible             99.0000      100.0000  2598064    1.01%
   6870   426      100.0000   226       99.0000      100.0000  2617495    1.01%
   6894   430      100.0000   292       99.0000      100.0000  2652422    1.01%
   6913   433    infeasible             99.0000      100.0000  2689746    1.01%
   6935   433    infeasible             99.0000      100.0000  2733257    1.01%
   6955   433    infeasible             99.0000      100.0000  2782079    1.01%
   6975   436    infeasible             99.0000      100.0000  2820714    1.01%
Starting limited solution polishing.
   6976   437      100.0000   223       99.0000      100.0000  2823370    1.01%
Elapsed time = 551.37 sec. (508127.19 ticks, tree = 3.01 MB, solutions = 8)
   6998   425    infeasible             99.0000      100.0000  2872489    1.01%
   7024   432      100.0000   245       99.0000      100.0000  2907360    1.01%
   7047   437      100.0000   122       99.0000      100.0000  2940196    1.01%
   7076   443      100.0000   171       99.0000      100.0000  2971433    1.01%
   7111   450    infeasible             99.0000      100.0000  3008212    1.01%
   7152   452    infeasible             99.0000      100.0000  3041547    1.01%
   7195   476    infeasible             99.0000      100.0000  3066795    1.01%
   7224   472    infeasible             99.0000      100.0000  3110748    1.01%
   7261   469    infeasible             99.0000      100.0000  3150696    1.01%
   7284   464      100.0000   288       99.0000      100.0000  3193014    1.01%
Elapsed time = 595.31 sec. (547407.89 ticks, tree = 3.20 MB, solutions = 8)
   7316   480    infeasible             99.0000      100.0000  3223529    1.01%

Clique cuts applied:  150
Zero-half cuts applied:  11

Root node processing (before b&c):
  Real time             =    5.84 sec. (5863.48 ticks)
Sequential b&c:
  Real time             =  594.16 sec. (545704.09 ticks)
                          ------------
Total (root+branch&cut) =  600.00 sec. (551567.56 ticks)
Primal:	99
Dual:	100
Status:	Feasible
Time:	599.92
Sequence:
	10
	7
	3
	10
	7
	6
	17
	11
	3
	16
	13
	6
	2
	12
	1
	15
	19
	4
	15
	12
	18
	8
	12
	2
	8
	16
	11
	5
	0
	14
	8
	16
	11
	5
	0
	14
	6
	17
	11
	6
	17
	11
	6
	17
	11
	4
	0
	13
	2
	0
	13
	2
	16
	13
	9
	16
	13
	2
	18
	12
	15
	1
	7
	10
	3
	3
	10
	7
	4
	15
	12
	1
	8
	11
	6
	17
	11
	6
	19
	11
	5
	18
	12
	18
	15
	7
	4
	10
	7
	3
	10
	7
	1
	15
	12
	18
	3
	7
	10
